# Lattice Energy Minimization for BCC Copper
units metal
dimension 3
boundary p p p
atom_style atomic

variable a equal 3.00  # Approximate lattice constant for BCC
lattice bcc ${a}
region box block 0 5 0 5 0 5 units lattice
create_box 1 box
create_atoms 1 box

# Define EAM potential for Cu
pair_style eam
pair_coeff * * Cu_u3.eam 

# Apply box relaxation before minimization (increase vmax)
fix 1 all box/relax iso 0.0 vmax 0.01  

# Run a short relaxation before minimization
run 100

# Change minimization style to fire for better stability
min_style fire  
minimize 1.0e-8 1.0e-10 5000 10000  

# Output results
thermo 10
thermo_style custom step pe lx ly lz press etotal
write_data bcc_minimized.data
